50 50
21 45
16 24
25 11
2 22
6 47
4 1
23 5
1 2
11 21
9 18
18 20
14 19
2 33
24 32
6 15
13 43
24 29
3 48
18 46
8 23
15 3
23 16
17 10
19 38
14 49
16 36
4 34
9 41
15 25
12 39
13 37
20 35
7 40
1 28
22 17
5 31
21 9
8 50
10 42
25 7
20 26
12 13
10 30
11 4
22 27
3 6
17 14
19 8
7 44
5 12
